[2026-03-23T16:09:21.564Z] Pipeline "set_ds_1_ds_1_s001_g005" → 2026_03_23_16_09_21_set_ds_1_ds_1_s001_g005_max.sol
Set parameter WLSAccessID
Set parameter WLSSecret
Set parameter LicenseID to value 2792458
Set parameter LogFile to value "gurobi.log"
Using license file /root/gurobi.lic
Academic license 2792458 - for non-commercial use only - registered to an___@studenti.unipg.it

Gurobi Optimizer version 13.0.1 build v13.0.1rc0 (linux64 - "Ubuntu 24.04.4 LTS")
Copyright (c) 2026, Gurobi Optimization, LLC

Warning: Duplicate section found (read 'binary') - Is a variable name equal to an LP file format keyword?
Warning: Duplicate section found (read 'binary') - Is a variable name equal to an LP file format keyword?
Warning: Duplicate section found (read 'binary') - Is a variable name equal to an LP file format keyword?
Warning: Duplicate section found (read 'binary') - Is a variable name equal to an LP file format keyword?
Warning: Duplicate section found (read 'binary') - Is a variable name equal to an LP file format keyword?
Warning: Duplicate section found (read 'binary') - Is a variable name equal to an LP file format keyword?
Warning: Duplicate section found (read 'binary') - Is a variable name equal to an LP file format keyword?
Warning: Duplicate section found (read 'binary') - Is a variable name equal to an LP file format keyword?
Warning: Duplicate section found (read 'binary') - Is a variable name equal to an LP file format keyword?
Warning: Duplicate section found (read 'binary') - Is a variable name equal to an LP file format keyword?
Warning: Further warnings of this type will be omitted.
Read LP format model from file /root/bgw/data/uploads/2026_03_23_16_09_21_set_ds_1_ds_1_s001_g005_max.lp
Reading time = 0.00 seconds
: 561 rows, 113 columns, 1605 nonzeros

Using Gurobi shared library /opt/gurobi1301/linux64/lib/libgurobi.so.13.0.1

CPU model: AMD EPYC-Genoa Processor, instruction set [SSE2|AVX|AVX2|AVX512]
Thread count: 16 physical cores, 16 logical processors, using up to 16 threads

Academic license 2792458 - for non-commercial use only - registered to an___@studenti.unipg.it
Optimize a model with 561 rows, 113 columns and 1605 nonzeros (Max)
Model fingerprint: 0xac1c32f6
Model has 16 linear objective coefficients
Variable types: 27 continuous, 86 integer (86 binary)
Coefficient statistics:
  Matrix range     [1e+00, 1e+01]
  Objective range  [1e+00, 1e+00]
  Bounds range     [1e+00, 1e+00]
  RHS range        [1e+00, 1e+01]

Found heuristic solution: objective 16.0000000
Presolve removed 206 rows and 43 columns
Presolve time: 0.00s
Presolved: 355 rows, 70 columns, 1105 nonzeros
Variable types: 0 continuous, 70 integer (65 binary)
Found heuristic solution: objective 44.0000000

Root relaxation: objective 8.600000e+01, 33 iterations, 0.00 seconds (0.00 work units)

    Nodes    |    Current Node    |     Objective Bounds      |     Work
 Expl Unexpl |  Obj  Depth IntInf | Incumbent    BestBd   Gap | It/Node Time

     0     0   86.00000    0   14   44.00000   86.00000  95.5%     -    0s
     0     0   86.00000    0   14   44.00000   86.00000  95.5%     -    0s
     0     0   79.00000    0   13   44.00000   79.00000  79.5%     -    0s
     0     0   79.00000    0   13   44.00000   79.00000  79.5%     -    0s
     0     0   79.00000    0   14   44.00000   79.00000  79.5%     -    0s
     0     0   79.00000    0   14   44.00000   79.00000  79.5%     -    0s
     0     0   79.00000    0   14   44.00000   79.00000  79.5%     -    0s
     0     0   79.00000    0   14   44.00000   79.00000  79.5%     -    0s
     0     0   79.00000    0   14   44.00000   79.00000  79.5%     -    0s
     0     0   77.44444    0   14   44.00000   77.44444  76.0%     -    0s
     0     0   77.44444    0   14   44.00000   77.44444  76.0%     -    0s
     0     0   76.66667    0   14   44.00000   76.66667  74.2%     -    0s
     0     0   75.88889    0   15   44.00000   75.88889  72.5%     -    0s
     0     0   75.88889    0   14   44.00000   75.88889  72.5%     -    0s
     0     0   72.25926    0   14   44.00000   72.25926  64.2%     -    0s
     0     0   72.25926    0   14   44.00000   72.25926  64.2%     -    0s
     0     2   72.25926    0   14   44.00000   72.25926  64.2%     -    0s

Cutting planes:
  Gomory: 6
  Lift-and-project: 2
  Cover: 2
  MIR: 4
  Inf proof: 1
  Zero half: 1
  Mod-K: 1

Explored 606 nodes (7461 simplex iterations) in 0.18 seconds (0.08 work units)
Thread count was 16 (of 16 available processors)

Solution count 2: 44 16 

Optimal solution found (tolerance 1.00e-04)
Best objective 4.400000000000e+01, best bound 4.400000000000e+01, gap 0.0000%

Wrote result file '/root/bgw/data/results/2026_03_23_16_09_21_set_ds_1_ds_1_s001_g005_max.sol'

